0000000000000000
0110000000000000
0110000000000000
0110000000000000
0110000000000000
0111111111100000
0111111111100000
0000000111100000
0000000111100000
0000001111100000
0000001111000000
0000011111000000
0000011110000000
0000011110000000
0000001110000000
0000000110000000
